Reproduction of the Original Problem/Instances/S3-5/S3-5-5-3-l.txt
     300       5    0.05
       2       2       2       3       3       4       3      14       1       3       3
       1       2       2       3       2      16       9       7       1       4       3
       2       2       3       3       2       3      16      10      14       8       2
       1       3       1       2       2      15       2       2       3       3       3
       2       2       1       1       3       7      12      12       4      15       3
       1       2       2       2       2       2      12      14       3       4       3
       3       3       1       3       2      14      16      13       3       2       3
       2       1       2       1       2       7       4      13      14       7       3
       3       3       3       1       3      11       8       9       1       9       3
       1       1       1       3       2      13       9       6       5       0       3
       3       3       1       3       2       7       7       9       8      13       2
       1       3       2       3       2       8       1       0       5       5       3
       2       2       3       2       3       3      14      10      13       5       2
       2       3       1       3       1       9       5       3      15      13       2
       3       3       3       1       1       3      11      13      11       3       3
       2       2       3       2       3       4       2       1       1       8       3
       1       1       3       1       1       2      12       3       6      12       2
       1       2       3       3       2       1       4      15       7       2       3
       1       1       3       2       3       6       4      16       6      12       3
       1       3       2       1       1       2       4      10      13      11       3
       1       1       2       3       1       8       3      16       9       4       3
       3       3       3       1       2       8       6      13      12       5       3
       2       2       3       3       1       3       0      13       3      15       2
       3       3       3       2       1      15       6      14       9       1       2
       3       1       2       1       3      11       7       2      14       0       2
       3       2       1       2       3       3       8      11       7      12       2
       2       3       3       2       1      14       0       1       9       2       2
       2       3       3       3       2      15       5      14       2       6       3
       3       2       2       3       3      10       5      11       2       0       2
       2       3       3       2       2      16      13       1       7       1       2
       1       2       2       2       1       2       5      14       2      15       2
       1       2       3       3       3      13      14      15      16       7       2
       1       3       3       2       1       5       2      12      11       7       3
       1       2       1       1       2      12       0       0       5      13       2
       2       3       1       3       3       0      10       3       0       4       3
       1       1       2       3       3       3      12       5      10       7       3
       3       2       3       3       3       4      15       4       6      11       3
       1       1       3       3       3      12       0      10       4       0       3
       3       2       3       2       1       5       3      11      15       7       2
       3       1       3       1       3       4       4      11       6       1       3
       2       2       1       3       2       4       0       7       4       8       3
       2       2       3       3       2       9       5      15       3      11       2
       3       2       1       1       2       4       4       3       3      10       3
       1       1       3       1       2       8       4       8       5      13       3
       3       2       1       2       1       5       2       9      13      16       2
       2       1       1       2       2      10      14       8       2      15       2
       2       2       1       3       2      16       9       8      15      16       3
       3       3       1       3       1      11       5      12       2       2       2
       1       3       1       3       1      14      14       1       5      16       2
       3       2       1       2       3       6      12       2      12      14       2
       1       1       1       1       3      15       0      15       8      10       2
       2       3       1       3       1       2      10      15       6       9       3
       1       3       1       2       3       5      10       5       1       3       2
       1       3       2       2       3      13      16      14       6       6       3
       2       1       2       3       2       0       0      12       0       6       2
       1       2       3       1       3      10       7       4       4       2       2
       2       3       1       1       2      15       0       4      15       7       3
       1       3       1       2       3       2      12      10       8       0       2
       1       3       1       2       3       7       0       4      12       9       3
       1       2       2       2       2       6      16       5       8       9       2
       2       1       1       1       1      11       0       1      16      10       3
       1       3       1       2       1      14       4       4      13       8       2
       3       2       2       3       3      13      15      15      10      15       2
       1       1       2       3       3       4      15      11       1      12       3
       3       3       1       2       2       4       7      11       4       3       2
       2       3       2       2       3      16       6       0       8       2       3
       3       1       2       2       3      13       8      14      15       5       2
       3       1       1       1       2       1      13      14       9       1       2
       2       1       2       2       2       5       0       4       4      13       3
       1       1       2       2       3       6      14       4       0       6       3
       2       1       3       2       1       8      14       6       2       0       2
       3       2       3       2       2      12      13      10      15      10       2
       3       2       2       3       2      12      10      12       5      10       2
       2       3       1       2       1      16       6       3       4       5       3
       3       2       3       2       2      10      16       0       3      13       3
       3       2       2       3       2       0      14      12       9      12       3
       2       2       2       3       1       4       6       9       8       1       3
       3       3       3       2       3      11       0       6      16       9       2
       3       3       2       2       3      14       4       1      11      13       3
       3       1       1       2       1      11      14       3       6       8       2
       1       3       1       1       2       5       8       3       6       0       2
       2       3       2       3       2       2       9       0      12       6       2
       2       1       3       1       2      15      16       2      15       2       3
       3       2       3       2       3      14      16       2      12       1       3
       2       1       3       2       1      11      11       1       3       7       2
       2       3       1       2       2       0       6       8       3       5       3
       1       3       2       3       3       0       6       9      14       0       3
       1       1       1       2       3       1       3      15      14      12       3
       2       3       1       3       3       6      13      15       4      15       2
       3       1       3       2       3       0       4      14       9       8       2
       2       2       2       2       2       1      12       4      15       8       2
       3       1       1       3       1      14       4       1       8      14       3
       2       2       3       2       1       0       5       5      11       9       2
       3       2       1       1       3       3       0       3       3      11       3
       2       2       1       2       1       8       7       3      10      16       3
       3       3       3       2       1       2      14       8       5      13       2
       3       1       3       2       2      13       0      10       0       0       2
       2       2       1       3       1      15       1       0       3      12       2
       3       1       1       3       2      14      13       5      16       5       3
       2       3       2       1       2       5       3       3       0      14       2
       3       3       2       1       2       0      12       4      16       4       2
       3       2       2       2       2       3      10      10       6      13       3
       1       2       2       2       3       9      11       3       9       4       2
       2       1       3       3       3      12       4      13       2      10       2
       3       2       1       2       1       2      12       1       9      12       2
       3       1       3       2       2      13       5      11      12       7       3
       2       1       1       1       1       8       0      13      13       0       3
       3       2       2       1       3       9       2       4      13      12       3
       3       3       2       2       3       0      12      16       6       8       3
       2       1       3       1       2       3      15       8       8      11       3
       1       1       3       2       3      10       8       6       6       8       3
       1       1       3       1       1       3       5      15       3       3       2
       2       1       2       2       1      10       8       4      15      13       3
       2       3       1       1       2      13      14      12       5       5       3
       1       3       2       2       1       4       0       4      12      16       2
       3       1       3       3       1       1       7      12      12       5       3
       2       1       1       2       1       1      10      11       7      11       2
       2       1       2       3       2       2       5       7       2      13       3
       2       3       2       3       1       9       4      11       8       3       3
       2       2       2       2       3       4       9      12      10      13       3
       3       3       2       2       3       7       6       2      13      15       2
       1       3       2       3       1       0      12      10       0       0       2
       3       1       1       2       1      10       1       0      11       6       2
       2       3       1       1       3       8       0      12       5      14       3
       2       2       1       3       2       3       4      15       1       7       3
       2       3       1       2       2       8       9       0       9       7       2
       2       3       3       1       3       6       2      11       3      13       3
       2       3       3       2       1       7       9      16       7       5       2
       2       1       3       3       3       0       9      12      11       6       2
       3       2       3       3       3       0      14       7      11      13       3
       2       3       1       2       2      13      10      14       6       4       2
       3       3       2       2       2       5      12       5       5       2       3
       3       2       1       3       3       9       9      15       7      11       2
       3       1       2       1       1       3       3      15       1       1       3
       1       1       2       2       2       1       2       6      14       2       2
       2       1       2       1       2       2       7       0       6      16       2
       3       2       1       2       2       0       3       8       5      11       2
       1       1       3       1       1      14       3       5      14      10       3
       2       3       2       1       1       2       5      16       5       2       3
       1       2       1       3       1       2       9      11      11       9       2
       2       1       3       2       1      12      10      13      15      15       3
       2       1       2       2       2      16       8       7       9      10       2
       2       3       2       3       2       4       1       6      12      11       2
       2       1       3       1       3      10      11      10       0       7       3
       2       2       2       2       2      13       6       1       4       0       2
       2       1       2       3       2       6       2      12       9      12       3
       3       1       2       2       1       9       7      12       6       0       3
       2       3       3       1       2      10       0      15       0       6       3
       2       3       2       3       1      11       7       9      13       9       3
       3       2       3       3       2      14      15       9      14      10       3
       3       3       3       3       2      14      16      16       9       9       3
       3       3       3       2       1      10       9       4       5       3       2
       1       2       2       2       3       7       6       9      16      14       2
       2       3       1       2       3       5       1       4       9       5       2
       2       2       2       2       2       1      15      15      14       3       3
       2       3       3       3       2       7       1       8      11      14       3
       1       3       2       1       1      10      10       1       4       4       3
       2       3       1       2       3       8       5       4       0      16       3
       3       1       1       3       1       0       9      14       8      13       2
       2       2       1       1       3      16      12       3       0       4       2
       3       3       3       3       2       2       1      14       0       4       2
       3       1       1       1       1      16       6       2       2      11       3
       3       1       2       2       1       3       8      15      12       2       3
       2       2       2       1       3       3       9       2       7       6       3
       1       1       1       1       3       6      14       2      13      11       2
       1       2       2       2       3       0       1       6      15       4       2
       3       3       2       1       2      16      16       4      13       7       3
       1       3       3       3       3       9       4      14       4       7       3
       1       3       1       3       3       9      13       7       6       7       2
       3       3       3       1       1       9      16       4       2       4       3
       1       3       2       1       3      16       4      15      10      11       2
       1       2       1       2       3       0      14      15      12       7       3
       1       3       3       3       2      15       7       5       0      12       3
       3       1       2       1       2       5      14      12      11      12       2
       2       1       2       3       3       5      10       7      12       7       2
       2       3       2       1       3       1       3       5      15      14       3
       3       3       3       3       3      11      12      12      11      13       2
       3       2       1       1       1       2       0       8       0       2       3
       2       2       2       2       2       0      11       3      16      12       2
       3       1       1       1       3       8       2       0       9       0       2
       1       3       2       2       3      13      10       1       5       1       2
       2       2       1       1       1       7       8       3       8       8       2
       2       1       1       1       1       2       3       5       9      15       3
       3       2       2       2       3      12       6       5      11      10       3
       3       2       1       2       1      13       3       0       3       8       3
       1       3       1       2       2       3      16       3       8       9       3
       3       2       1       3       2       5       3      15       6       2       3
       3       1       3       1       2      10       2       7      10       3       3
       1       2       1       2       3      12       1      16       0       2       2
       1       3       1       2       2       2      16       3       9       8       2
       3       2       1       2       1      14      15       3      10      15       3
       3       2       1       2       1      16       4      13       5       7       3
       2       3       1       3       2       6       8      15       8      12       3
       2       3       3       1       2      11      15      11      12       9       2
       3       1       2       1       1       8       0      13       6       4       3
       3       2       3       1       2      16      13       7       3      12       2
       1       1       1       2       3      12       7       7       6      16       2
       1       1       1       1       1       9       7       8       6      16       2
       2       1       3       3       2      11      12      10       4      16       3
       3       3       2       2       3      12      11       2      13      10       3
       3       1       1       3       1       0       0       6      10      15       3
       1       3       1       3       2      10      10      14       2       6       3
       1       2       3       1       2      10       4       2      16       3       2
       1       1       1       3       1      14       1      10       9      15       2
       3       3       3       1       3      10       5       8       0      13       3
       3       1       2       1       3       2       2       7       0       6       2
       2       1       2       1       2      11      16      11      10       2       3
       1       3       2       1       3      10       6      15      13       0       2
       3       3       3       1       2       0       6      13       8       8       2
       1       2       3       3       1       3       1       9       4       9       2
       3       2       1       3       1      10       6      16       3       6       3
       2       2       2       1       2      10       9      12       0       4       3
       3       1       1       1       2      12      15       0      14      11       3
       3       3       2       1       1       2      15       0      11       2       2
       3       1       2       2       2       8       2      15      13       3       3
       3       2       3       2       3      14       8      14      10       9       3
       2       3       1       1       3       8       8       7      16      13       2
       2       1       1       2       2      12       0       9      13       8       2
       1       1       1       2       1       2       3      16      12      10       2
       2       2       1       3       3      15       6       5       9       7       3
       2       1       1       3       1       0       0       3       7      13       3
       3       2       1       1       3      12       3       8      13      13       2
       1       1       2       1       2       4       1      11      15       6       2
       3       2       2       1       3       1       1      16       4       1       3
       1       2       2       1       3      16       3      10       1       9       3
       2       3       2       1       2      13       2       2      11       5       2
       1       1       3       3       2       2       6       8       1      15       2
       1       3       3       1       1      16       9      12       6       5       2
       3       1       2       3       3       1      12       2      12      13       3
       3       2       3       1       3       6       4       9       2      11       3
       3       3       1       1       2       7       7       8       6       4       2
       2       2       2       3       2       7      10       5       4       0       3
       1       1       1       1       2       7      15       1      12      11       3
       2       3       3       2       3      14       3      13      14       7       2
       1       1       3       3       2       4      11      11       7       1       3
       1       2       3       3       2       1       7      10       4      15       2
       2       3       1       3       2      13      16       5      15      11       3
       1       1       2       3       2      13      15      15      16      16       3
       3       1       2       3       3      13       2      15      14       5       3
       3       1       3       2       2      10      12      10      13       6       3
       1       1       3       3       3       1       8       5       8       4       3
       3       1       1       2       3       4      10      10      11      16       2
       1       1       3       2       1       0       9       1       7      13       3
       2       3       2       1       1      13       9      14       8       9       3
       3       2       2       3       1       2      16      16      15       0       3
       3       3       3       3       3      13      16      10      16      11       3
       1       1       2       2       1      15      16       2       9       0       3
       2       1       3       3       3      15       8      14       9       8       3
       3       1       3       3       3       8      15       1      10      16       2
       3       1       2       3       3       1      16       6       9      13       3
       1       1       1       2       1       3      15       3      15       3       2
       3       1       3       2       2      16      12       9       3       2       2
       1       2       2       2       1       4       8      15      10      15       2
       1       3       3       1       2       9      10      14      10       9       2
       1       3       2       3       3       0       5      11       4      16       3
       3       3       3       2       2       1       6       3       1       3       2
       2       2       1       3       2      13       3      11       3      12       2
       1       1       2       1       2       3       9      14      12       1       2
       1       3       3       2       3      14      15       9       1      13       3
       3       3       2       2       2      16      12       3       4       8       3
       1       1       2       1       1       7      14       0       4       8       2
       2       2       3       1       1       9      11       6       3       2       2
       2       2       2       2       1       8      10      11       4       9       2
       3       3       3       2       2       1      13       4      10      16       2
       1       2       3       1       3      12       2      13       1      11       3
       2       1       1       1       1      15       5      11      16      12       2
       3       1       3       1       2      15       6       1       5      13       3
       2       3       3       3       3       3       6      16       2       2       3
       1       2       1       3       3      16      10       9       9       3       2
       2       3       2       1       2       7      16       8       0      10       2
       2       3       1       1       2      14       8       0       6      12       2
       3       3       3       1       2       4       9      15       9       0       3
       3       2       2       2       1       4      10      10       8       9       3
       2       1       1       2       1       5       3       9       9      14       3
       3       3       3       2       2       0       6       8      10       9       2
       3       1       3       3       2       2       6       0       5      16       2
       2       1       3       2       1       1      14      11      16      14       2
       3       1       1       1       2      10       2       6      13       8       2
       2       3       1       3       3       6      15      11      13      13       3
       1       2       2       2       1       5       8       2       7      10       3
       1       2       3       2       1       6       0      11      10      12       2
       2       1       2       1       1      14      16       0       2       0       2
       2       1       1       3       1       3      10       2       5       7       3
       3       1       3       1       2      15       3       7       8      16       3
       1       1       3       1       3       6       8      16      12      13       2
       1       1       3       3       2      15       0      10       7       5       2
       1       1       3       2       2       8       0       3       4      13       2
       3       1       1       2       1       8       8       3       4       4       3
       2       1       2       3       2      12      10      13      10       1       2
       1       3       2       3       3       9       6      11       9       4       3
       1       2       2       1       1      16      12       7       5       1       3
       3       1       3       2       1      16      13      15      11      12       3
       1       3       1       1       1       5       9      12      15      14       2
       2       2       2       1       2      15       6      15      13      13       3
       2       2       1       1       2       0       8       6      10      13       3
       2       2       3       3       3       1       6      15       5       3       3
       1       1       1       3       1      12       7      12      14      12       2
       1       2       3       3       2       4       0       8      16      12       3
       1       2       3       1       1       0      10      16       0       1       2
       3       3       2       2       2      15       6       1       6      14       2
     256     194     203     214     266
     604     302     604     604     604
    1057     555     839     627    1133